unsat
(define-fun f ((x (_ BitVec 64))) (_ BitVec 64) (let ((_let_1 (bvadd x x))) (let ((_let_2 (bvsdiv x _let_1))) (let ((_let_3 (bvlshr x #b0000000000000000000000000000000000000000000000000000000000000001))) (let ((_let_4 (bvmul x _let_3))) (let ((_let_5 (bvult x (bvmul x _let_4)))) (let ((_let_6 (bvnot x))) (let ((_let_7 (bvult x (bvor x (bvsdiv x #b0000000000000000000000000000000000000000000000000000000000000000))))) (let ((_let_8 (bvsub #b0000000000000000000000000000000000000000000000000000000000000001 x))) (let ((_let_9 (bvmul x x))) (let ((_let_10 (bvsdiv x _let_9))) (let ((_let_11 (bvadd #b0000000000000000000000000000000000000000000000000000000000000001 #b0000000000000000000000000000000000000000000000000000000000000001))) (let ((_let_12 (bvor x (bvshl #b0000000000000000000000000000000000000000000000000000000000000001 _let_11)))) (let ((_let_13 (= x _let_12))) (let ((_let_14 (bvsdiv _let_9 x))) (let ((_let_15 (bvshl x _let_14))) (let ((_let_16 (bvmul x _let_1))) (let ((_let_17 (bvashr x #b0000000000000000000000000000000000000000000000000000000000000001))) (let ((_let_18 (= x (bvsrem x (bvadd x _let_17))))) (let ((_let_19 (bvult x (bvmul x (bvand x _let_9))))) (let ((_let_20 (bvxor x (bvadd x #b0000000000000000000000000000000000000000000000000000000000000001)))) (let ((_let_21 (bvult x (bvsrem x _let_20)))) (let ((_let_22 (bvult #b0000000000000000000000000000000000000000000000000000000000000001 _let_10))) (let ((_let_23 (bvult x (bvmul x (bvand x _let_17))))) (let ((_let_24 (bvmul x _let_17))) (let ((_let_25 (bvashr _let_9 #b0000000000000000000000000000000000000000000000000000000000000001))) (let ((_let_26 (bvult _let_25 x))) (let ((_let_27 (bvult x (bvmul x (bvshl _let_6 #b0000000000000000000000000000000000000000000000000000000000000001))))) (let ((_let_28 (bvmul x (bvsub x #b0000000000000000000000000000000000000000000000000000000000000001)))) (let ((_let_29 (bvudiv _let_9 x))) (let ((_let_30 (bvshl x _let_29))) (let ((_let_31 (= x (bvsrem x _let_4)))) (let ((_let_32 (bvnot #b0000000000000000000000000000000000000000000000000000000000000001))) (let ((_let_33 (bvult x (bvor x (bvsub #b0000000000000000000000000000000000000000000000000000000000000001 _let_32))))) (let ((_let_34 (bvult _let_3 _let_9))) (let ((_let_35 (bvxor x _let_3))) (let ((_let_36 (bvashr x _let_11))) (let ((_let_37 (bvult _let_9 _let_1))) (let ((_let_38 (bvor x #b0000000000000000000000000000000000000000000000000000000000000001))) (let ((_let_39 (bvxor x (bvsub x _let_38)))) (let ((_let_40 (bvmul x _let_9))) (let ((_let_41 (= x (bvsrem x _let_40)))) (let ((_let_42 (bvult _let_14 x))) (let ((_let_43 (bvult x _let_24))) (let ((_let_44 (bvand x #b0000000000000000000000000000000000000000000000000000000000000001))) (let ((_let_45 (bvult x _let_4))) (let ((_let_46 (bvult _let_40 x))) (let ((_let_47 (bvult x (bvor x (bvsdiv _let_1 #b0000000000000000000000000000000000000000000000000000000000000000))))) (let ((_let_48 (bvult (bvlshr _let_9 #b0000000000000000000000000000000000000000000000000000000000000001) x))) (let ((_let_49 (bvult x (bvnot (bvshl x _let_11))))) (let ((_let_50 (bvult x _let_35))) (let ((_let_51 (bvult _let_35 x))) (let ((_let_52 (ite (bvult x (bvxor x _let_4)) x _let_1))) (let ((_let_53 (bvurem _let_6 x))) (let ((_let_54 (bvult x (bvxor x _let_53)))) (let ((_let_55 (bvult x (bvmul x _let_40)))) (let ((_let_56 (bvmul x _let_6))) (let ((_let_57 (bvult x (bvmul x _let_56)))) (let ((_let_58 (= x (bvsrem x _let_56)))) (let ((_let_59 (bvxor x #b0000000000000000000000000000000000000000000000000000000000000001))) (let ((_let_60 (bvult #b0000000000000000000000000000000000000000000000000000000000000001 (bvsrem x _let_59)))) (let ((_let_61 (bvult (bvsdiv _let_1 x) x))) (let ((_let_62 (bvult x (bvmul x (bvnot _let_1))))) (let ((_let_63 (bvxor x _let_17))) (let ((_let_64 (bvult x (bvmul x _let_63)))) (let ((_let_65 (bvshl x (bvudiv x _let_9)))) (let ((_let_66 (bvnot _let_9))) (let ((_let_67 (bvult _let_4 x))) (let ((_let_68 (ite _let_67 _let_1 x))) (let ((_let_69 (bvsrem x _let_9))) (let ((_let_70 (bvult x (bvmul x (bvxor #b0000000000000000000000000000000000000000000000000000000000000001 _let_9))))) (let ((_let_71 (bvlshr _let_6 #b0000000000000000000000000000000000000000000000000000000000000001))) (let ((_let_72 (bvult x _let_40))) (let ((_let_73 (ite (bvult x (bvshl x (bvand x _let_8))) x _let_1))) (let ((_let_74 (bvult x (bvmul x (bvor #b0000000000000000000000000000000000000000000000000000000000000001 _let_17))))) (let ((_let_75 (bvult x (bvxor x _let_9)))) (let ((_let_76 (bvult x (bvxor x (bvurem _let_9 x))))) (let ((_let_77 (bvsrem x _let_16))) (let ((_let_78 (= x _let_77))) (let ((_let_79 (ite (bvult _let_63 x) _let_1 x))) (let ((_let_80 (bvadd x _let_3))) (let ((_let_81 (bvult x (bvxor x _let_80)))) (let ((_let_82 (bvult _let_10 x))) (let ((_let_83 (bvadd x _let_9))) (let ((_let_84 (bvult _let_56 x))) (let ((_let_85 (bvult x (bvmul x (bvurem _let_32 x))))) (let ((_let_86 (ite (bvult x _let_56) _let_1 x))) (let ((_let_87 (bvudiv x _let_6))) (let ((_let_88 (bvshl x (bvand #b0000000000000000000000000000000000000000000000000000000000000001 _let_3)))) (let ((_let_89 (= x (bvsrem x _let_63)))) (let ((_let_90 (= x (bvurem x (bvsrem _let_1 x))))) (let ((_let_91 (bvsrem x _let_24))) (let ((_let_92 (= x _let_91))) (let ((_let_93 (bvult x (bvor x _let_11)))) (let ((_let_94 (ite _let_81 x _let_1))) (let ((_let_95 (bvmul x _let_38))) (let ((_let_96 (ite _let_89 x _let_1))) (let ((_let_97 (bvmul x _let_59))) (let ((_let_98 (ite _let_46 x _let_1))) (ite (bvult _let_3 _let_1) (ite (= x (bvor x (bvudiv x _let_17))) (ite _let_42 (ite _let_7 (ite _let_90 (ite _let_61 (ite _let_41 (ite _let_48 (ite _let_37 (ite _let_34 (ite _let_47 (ite _let_60 _let_6 _let_96) (ite (bvult x (bvmul x (bvor #b0000000000000000000000000000000000000000000000000000000000000001 _let_3))) _let_1 x)) (ite _let_47 (ite _let_60 _let_6 _let_1) (ite _let_23 _let_1 x))) _let_6) (ite _let_47 (ite _let_60 _let_6 (ite _let_13 (ite (bvult x (bvxor x _let_29)) x (ite (bvult x (bvsrem _let_9 x)) x _let_1)) (ite _let_82 (ite _let_31 (ite _let_78 (ite _let_62 (ite _let_50 x (ite (= x (bvor x (bvudiv (bvnot #b0000000000000000000000000000000000000000000000000000000000000000) x))) x _let_1)) (ite _let_54 _let_1 x)) x) _let_1) x))) (ite _let_43 x _let_1))) (ite _let_48 (ite _let_37 (ite _let_34 (ite _let_47 _let_39 (ite _let_18 _let_98 (ite (bvult _let_95 x) (ite _let_45 x _let_1) (ite (bvult x (bvmul x _let_2)) _let_1 x)))) (ite _let_47 _let_39 (ite _let_49 _let_1 _let_98))) _let_6) (ite _let_47 (ite _let_60 _let_6 (ite _let_51 x _let_68)) (ite _let_67 (ite (bvult x (bvxor x _let_24)) _let_1 x) x)))) (ite _let_41 (ite _let_48 (ite (bvult x (bvmul x _let_97)) _let_39 _let_1) _let_39) (ite _let_48 (ite _let_34 (ite _let_47 _let_6 _let_52) _let_6) _let_6))) _let_6) (ite _let_90 (ite _let_41 (ite _let_37 (ite _let_34 (ite _let_33 x (ite _let_13 _let_1 (ite (bvult x (bvxor x _let_71)) (ite _let_19 (ite _let_67 x _let_1) x) (ite _let_5 x _let_1)))) (ite _let_33 (ite _let_13 (ite _let_92 _let_52 (ite (bvult x (bvmul x _let_69)) x _let_1)) _let_94) (ite (bvult x (bvxor x _let_97)) x _let_1))) (ite _let_33 (ite _let_13 (ite _let_21 _let_15 _let_96) (ite (= x (bvsrem x _let_80)) (ite (= x (bvsrem x _let_95)) x (ite (bvult x (bvxor x _let_87)) (ite (bvult x (bvshl x _let_20)) _let_1 x) _let_1)) x)) (ite (bvult x (bvxor x (bvsub x _let_9))) _let_1 x))) (ite _let_37 (ite _let_34 x (ite _let_33 (ite _let_46 x (ite (bvult x _let_77) x _let_1)) (ite (bvult x (bvmul x (bvsdiv x _let_11))) _let_94 x))) (ite _let_33 (ite (bvult x (bvmul x (bvurem x _let_6))) (ite (bvult x _let_91) x _let_15) _let_1) (ite _let_22 x _let_1)))) (ite _let_41 (ite _let_37 (ite _let_70 (ite _let_93 _let_1 x) _let_1) (ite _let_93 _let_15 x)) (ite _let_37 (ite _let_74 x _let_88) (ite _let_33 _let_15 (ite _let_13 (ite (bvult x (bvmul x _let_28)) _let_1 x) (ite (bvult x _let_9) (ite _let_92 x _let_1) (ite _let_72 (ite (bvult x (bvmul x (bvlshr (bvneg x) #b0000000000000000000000000000000000000000000000000000000000000001))) x _let_1) _let_1)))))))) (ite _let_7 (ite _let_90 (ite _let_61 (ite _let_41 (ite _let_48 (ite _let_34 (ite _let_47 _let_6 _let_1) _let_6) (ite _let_60 _let_6 (ite _let_13 (ite (bvult x _let_63) x _let_1) (ite _let_58 (ite _let_54 _let_79 (ite (bvult x (bvxor x _let_16)) x _let_1)) (ite _let_64 _let_1 x))))) (ite _let_48 _let_6 (ite _let_60 _let_6 (ite (bvult x (bvxor x (bvashr x _let_44))) x _let_1)))) _let_39) _let_6) (ite _let_90 (ite _let_41 (ite _let_34 (ite _let_89 _let_88 x) (ite _let_33 (ite _let_13 (ite _let_85 (ite (= x (bvor x _let_87)) (ite _let_55 x _let_1) x) (ite (bvult x (bvnot _let_63)) _let_86 (ite (bvult x (bvmul x (bvurem x _let_8))) _let_1 x))) (ite _let_75 x _let_86)) (ite _let_13 (ite _let_84 (ite _let_85 x _let_1) x) (ite _let_84 (ite (bvult x (bvsrem x (bvnot _let_11))) _let_1 x) (ite (= x (bvsrem x (bvurem x _let_9))) x _let_1))))) (ite _let_34 _let_1 (ite _let_33 (ite _let_72 (ite (bvult x (bvxor x _let_83)) x _let_1) x) (ite _let_75 (ite (bvult x (bvmul x (bvor x _let_3))) (ite _let_72 _let_1 x) _let_1) (ite _let_46 (ite (bvult x (bvnot _let_25)) _let_1 x) x))))) (ite _let_27 _let_1 (ite (bvult _let_1 _let_9) (ite (bvult x (bvmul x _let_83)) x _let_1) x))))) (ite _let_42 (ite _let_61 (ite _let_41 (ite _let_48 (ite _let_34 (ite _let_47 (ite _let_60 _let_6 (ite (bvult x (bvmul x _let_53)) _let_65 x)) x) _let_39) (ite _let_60 _let_6 (ite _let_13 (ite _let_82 (ite _let_57 (ite (= x (bvor x _let_29)) (ite (bvult x _let_30) (ite (bvult x (bvmul x _let_80)) _let_1 x) _let_73) (ite _let_81 _let_79 (ite _let_76 _let_1 x))) _let_1) x) (ite _let_50 (ite _let_78 _let_1 x) (ite (bvult x _let_66) (ite _let_76 x _let_1) x))))) (ite _let_48 (ite _let_34 (ite _let_47 (ite _let_60 _let_6 (ite _let_75 x _let_1)) (ite _let_18 (ite _let_74 _let_30 _let_65) (ite _let_13 (ite _let_43 _let_65 _let_73) (ite _let_26 (ite _let_72 (ite (bvult x (bvmul x _let_71)) _let_1 x) x) (ite (bvult x (bvmul x (bvlshr x _let_11))) (ite _let_70 _let_1 x) x))))) (ite _let_47 _let_6 (ite _let_23 x (ite (bvult x (bvxor x (bvsrem x _let_1))) x _let_1)))) (ite _let_47 (ite _let_60 _let_6 (ite (= x _let_69) _let_68 x)) (ite (bvult _let_24 x) (ite (bvult x (bvmul x _let_66)) _let_1 x) (ite _let_57 _let_1 x))))) (ite _let_41 (ite _let_48 (ite _let_34 (ite (bvult x _let_38) _let_6 _let_65) x) _let_39) (ite _let_48 (ite _let_34 (ite _let_64 _let_39 _let_1) (ite _let_47 _let_39 (bvadd x (bvsrem x (bvashr x x))))) (ite _let_47 _let_6 (ite _let_64 x (ite _let_62 _let_1 x)))))) (ite _let_61 (ite _let_41 (ite _let_48 _let_6 (ite _let_60 _let_6 (ite _let_13 (ite _let_58 (ite _let_57 (ite _let_55 (ite _let_54 _let_52 (ite _let_51 x _let_1)) _let_1) x) x) (ite _let_50 (ite (bvult x (bvxor x _let_36)) _let_1 x) (ite (bvult x _let_16) x (ite _let_49 x _let_1)))))) (ite _let_48 (ite _let_47 _let_6 (ite _let_46 _let_1 (ite _let_45 _let_1 x))) (ite (= x _let_38) _let_1 _let_6))) (ite (bvult x (bvsdiv x _let_44)) _let_6 (ite _let_43 x (bvmul x _let_29)))))) (ite _let_42 (ite _let_7 _let_6 (ite _let_41 (ite _let_37 _let_1 _let_39) (ite _let_37 (ite _let_33 (ite (bvult x _let_12) (ite (bvult x (bvmul x _let_36)) _let_1 x) x) (ite (bvult x (bvmul x _let_35)) x _let_1)) (ite _let_34 (ite _let_33 (ite _let_18 (ite _let_31 _let_30 (ite (bvult _let_28 x) x (ite _let_27 x _let_1))) (ite _let_13 (ite _let_26 (ite (bvult x (bvmul x _let_24)) x _let_1) (ite _let_23 (ite _let_22 _let_1 (ite _let_21 x _let_1)) _let_1)) (ite _let_21 x (ite _let_19 x _let_1)))) (ite _let_18 (ite (bvult x (bvmul x _let_16)) x _let_15) (ite _let_13 _let_1 (ite (= #b0000000000000000000000000000000000000000000000000000000000000001 _let_10) _let_1 (ite (bvult x (bvmul x (bvand x _let_3))) x _let_1))))) (ite (bvult x (bvsrem x (bvxor x _let_8))) _let_1 x))))) (ite _let_7 _let_6 (ite _let_5 (ite (= x (bvand x _let_2)) x _let_1) x)))))))))))))))))))))))))))))))))))))))))))))))))))))))))))))))))))))))))))))))))))))))))))))))))))))))
510.73user 0.63system 8:31.38elapsed 99%CPU (0avgtext+0avgdata 569360maxresident)k
0inputs+24outputs (0major+203732minor)pagefaults 0swaps
